p cnf 12 43 
c Factors encoded in variables 1-6 and 7-12
c Target number: 3233
c Factors: 61 x 53
-4 -3 2 9 8 0
4 2 10 -9 0
-3 2 10 9 -8 0
-4 3 2 -8 0
4 3 -2 10 0
-4 -3 -2 10 0
-4 10 -9 -8 0
-4 -10 -9 0
1 0
-4 10 9 8 0
4 -3 9 0
-4 10 -8 0
5 0
-4 -10 9 8 0
7 0
4 10 0
-4 -10 -9 8 0
-10 -8 0
-4 9 -8 0
3 -10 -9 0
4 -10 9 8 0
-4 3 2 10 0
12 0
-4 -2 -9 8 0
-9 -8 0
-10 -9 -8 0
-4 -3 -10 -9 0
4 -3 -2 10 0
4 10 -8 0
4 -3 -2 -10 0
3 -9 0
-3 2 -10 9 8 0
4 3 2 -10 0
-2 8 0
4 10 9 0
11 0
2 9 -8 0
6 0
-4 -2 -10 9 -8 0
-3 9 0
2 -8 0
4 -10 -9 -8 0
-4 -3 -10 9 0
